NAME : portcgen-26-3
COMMENT : portcgen N=26, seed=3
TYPE : TSP
DIMENSION : 26
EDGE_WEIGHT_TYPE : EUC_2D
NODE_COORD_SECTION
1 252875 116462
2 -87160 -208415
3 -129542 295085
4 -104028 321554
5 -204575 18756
6 101080 -241722
7 -25477 -264729
8 179181 204532
9 -167187 -266739
10 70631 -180251
11 -168344 -28357
12 157675 291022
13 65088 -24079
14 -277189 -307415
15 -52933 114969
16 107007 68924
17 499665 343473
18 21657 59502
19 118702 104500
20 -346631 -42815
21 -171420 239180
22 -84261 107387
23 -10011 -82014
24 8789 80830
25 47816 344946
26 229108 -212892
